p wcnf 140 1500
1 -136 -139 0
5 -132 137 0
6 -131 133 0
2 -131 134 0
9 -130 134 0
7 -129 137 0
4 -127 -136 0
8 -127 131 0
7 -125 -132 0
7 -125 -126 0
2 -124 -137 0
2 -124 127 0
8 -124 133 0
3 -123 134 0
8 -123 135 0
6 -122 131 0
3 -121 130 0
8 -120 126 0
6 -119 140 0
10 -118 130 0
5 -117 -136 0
5 -116 -121 0
4 -115 -131 0
5 -115 -118 0
4 -115 124 0
6 -114 -123 0
4 -112 116 0
8 -111 123 0
9 -111 126 0
10 -111 136 0
5 -111 138 0
9 -110 -116 0
5 -110 112 0
1 -110 129 0
1 -110 130 0
4 -109 111 0
7 -109 124 0
4 -108 -135 0
1 -108 117 0
5 -108 140 0
10 -107 112 0
3 -105 -131 0
6 -104 128 0
8 -104 135 0
5 -103 -137 0
4 -103 -133 0
4 -103 134 0
6 -102 -122 0
1 -102 110 0
9 -101 -129 0
6 -101 -110 0
5 -101 -107 0
4 -101 -103 0
9 -101 118 0
9 -100 -124 0
7 -100 -101 0
5 -100 104 0
3 -100 130 0
5 -100 131 0
4 -99 -106 0
3 -99 -100 0
9 -99 113 0
3 -99 139 0
7 -98 -122 0
9 -98 -113 0
3 -98 100 0
9 -98 110 0
6 -98 111 0
6 -98 125 0
10 -98 132 0
10 -97 -127 0
6 -97 100 0
2 -97 127 0
6 -97 128 0
4 -96 -137 0
6 -96 -126 0
8 -96 -98 0
7 -96 124 0
2 -95 -121 0
9 -95 -112 0
6 -95 -110 0
7 -95 113 0
4 -95 122 0
9 -95 129 0
6 -93 -140 0
3 -93 -94 0
6 -93 102 0
1 -93 110 0
5 -93 118 0
10 -91 -92 0
4 -91 92 0
7 -91 118 0
9 -91 132 0
6 -90 -136 0
3 -90 -101 0
7 -90 106 0
8 -90 115 0
3 -90 139 0
4 -89 -138 0
4 -89 -122 0
2 -89 140 0
3 -88 -122 0
10 -88 -113 0
3 -88 131 0
8 -87 -105 0
4 -87 -104 0
8 -87 105 0
6 -87 125 0
10 -87 126 0
10 -87 130 0
5 -86 -126 0
6 -86 123 0
7 -86 129 0
8 -85 -128 0
5 -85 -102 0
4 -85 90 0
10 -85 101 0
10 -85 104 0
4 -84 -105 0
5 -84 -97 0
9 -84 -87 0
7 -84 101 0
2 -84 106 0
8 -84 136 0
3 -83 -133 0
4 -83 -131 0
5 -83 -84 0
10 -83 95 0
6 -83 114 0
8 -83 119 0
4 -82 -112 0
7 -82 -95 0
1 -82 92 0
4 -81 -132 0
10 -81 -129 0
8 -81 -109 0
7 -81 -108 0
8 -81 -86 0
4 -81 94 0
6 -80 -125 0
8 -80 106 0
8 -79 -93 0
2 -79 -90 0
5 -79 92 0
6 -79 134 0
6 -78 99 0
7 -78 120 0
6 -78 129 0
6 -78 138 0
1 -77 -138 0
10 -77 -134 0
5 -77 -120 0
7 -77 91 0
2 -77 121 0
3 -76 -124 0
9 -76 81 0
5 -76 85 0
8 -76 104 0
8 -76 109 0
1 -76 133 0
6 -75 -119 0
2 -75 -105 0
8 -75 -104 0
6 -75 93 0
5 -75 98 0
8 -74 -119 0
3 -74 89 0
2 -73 -111 0
6 -73 -77 0
6 -73 83 0
7 -73 103 0
4 -73 116 0
4 -72 -137 0
8 -72 -123 0
8 -72 -112 0
9 -72 -110 0
5 -72 -88 0
5 -72 84 0
4 -72 85 0
9 -72 136 0
6 -72 138 0
4 -71 -140 0
4 -71 -101 0
3 -71 -96 0
5 -71 -81 0
6 -71 98 0
1 -70 -131 0
9 -70 -122 0
4 -70 -117 0
8 -70 -82 0
9 -70 -80 0
9 -70 113 0
10 -69 -135 0
7 -69 -77 0
4 -69 -75 0
5 -69 72 0
5 -69 95 0
7 -69 114 0
5 -69 131 0
10 -68 -106 0
3 -68 -98 0
2 -68 -91 0
4 -68 -83 0
6 -68 -71 0
10 -68 98 0
2 -68 135 0
5 -67 72 0
4 -67 83 0
6 -67 84 0
8 -67 89 0
4 -67 96 0
1 -67 102 0
2 -67 109 0
7 -66 -70 0
3 -66 85 0
6 -66 89 0
3 -66 102 0
3 -66 131 0
5 -65 -88 0
6 -65 -76 0
2 -65 88 0
4 -65 93 0
5 -64 -118 0
1 -64 -85 0
2 -64 125 0
8 -64 133 0
5 -63 -134 0
5 -63 -124 0
4 -63 -113 0
10 -63 -83 0
5 -62 -116 0
6 -62 -115 0
2 -62 -112 0
8 -62 -93 0
3 -62 -91 0
2 -62 -88 0
9 -62 -84 0
6 -62 -74 0
5 -62 90 0
5 -62 96 0
5 -62 98 0
8 -62 139 0
5 -61 -130 0
6 -61 -123 0
5 -61 -110 0
7 -60 -130 0
2 -60 -122 0
7 -60 -84 0
10 -60 -72 0
7 -60 87 0
3 -60 95 0
1 -60 140 0
10 -59 -127 0
7 -59 80 0
2 -59 85 0
1 -59 120 0
5 -58 -123 0
6 -58 -120 0
6 -58 -114 0
8 -58 -98 0
6 -58 -81 0
1 -58 72 0
4 -58 77 0
6 -58 87 0
9 -58 91 0
6 -57 -123 0
7 -57 -120 0
8 -57 -106 0
2 -57 -83 0
2 -57 -62 0
3 -57 -61 0
6 -57 73 0
9 -57 85 0
7 -56 -69 0
2 -56 84 0
4 -56 105 0
5 -55 -140 0
4 -55 -58 0
10 -55 76 0
4 -55 84 0
9 -55 127 0
3 -54 -128 0
5 -54 -127 0
9 -54 -83 0
8 -54 60 0
6 -54 73 0
10 -53 -83 0
3 -53 -69 0
2 -53 -65 0
6 -52 -132 0
10 -52 -107 0
6 -52 -95 0
6 -52 -82 0
4 -52 -79 0
3 -52 -77 0
5 -52 -54 0
9 -52 137 0
9 -51 -130 0
3 -51 -108 0
2 -51 -98 0
2 -51 -71 0
5 -51 108 0
7 -50 -130 0
10 -50 -84 0
2 -50 -72 0
8 -50 -69 0
4 -50 92 0
6 -50 94 0
2 -50 106 0
3 -50 111 0
9 -49 -55 0
2 -49 75 0
5 -49 90 0
4 -49 92 0
1 -49 105 0
4 -49 111 0
9 -48 -129 0
10 -48 -125 0
5 -48 -98 0
10 -48 -81 0
6 -48 -76 0
5 -48 -75 0
6 -48 69 0
2 -48 71 0
9 -48 83 0
8 -47 -48 0
6 -47 50 0
8 -47 60 0
7 -47 91 0
8 -47 106 0
9 -47 125 0
7 -46 -131 0
2 -46 -109 0
6 -46 -101 0
7 -46 -100 0
3 -46 80 0
4 -45 -93 0
10 -45 -88 0
8 -45 -58 0
5 -45 79 0
3 -45 104 0
7 -45 106 0
6 -45 121 0
8 -45 125 0
1 -45 137 0
6 -45 140 0
1 -44 -98 0
9 -44 -81 0
6 -44 -66 0
6 -44 -60 0
9 -44 46 0
1 -44 47 0
10 -44 48 0
4 -44 50 0
2 -44 67 0
9 -44 120 0
2 -43 -134 0
7 -43 -121 0
7 -43 -118 0
8 -43 84 0
5 -43 97 0
5 -43 119 0
5 -43 124 0
6 -42 -128 0
1 -42 -121 0
2 -42 137 0
8 -41 -72 0
4 -41 -67 0
2 -41 43 0
6 -41 53 0
8 -41 99 0
5 -41 101 0
3 -41 111 0
4 -41 133 0
2 -40 -121 0
3 -40 -98 0
9 -40 -86 0
2 -40 -63 0
2 -40 -59 0
5 -40 -50 0
7 -40 114 0
9 -40 124 0
5 -40 132 0
7 -39 -124 0
4 -39 -92 0
6 -39 -86 0
6 -39 70 0
5 -39 75 0
3 -39 98 0
2 -38 -98 0
3 -38 -67 0
7 -38 -58 0
7 -38 -40 0
7 -38 60 0
3 -38 105 0
7 -38 132 0
8 -37 -89 0
1 -37 39 0
10 -37 97 0
10 -36 -124 0
6 -36 -111 0
8 -36 -55 0
4 -36 72 0
8 -36 87 0
2 -36 104 0
5 -36 140 0
10 -35 -111 0
1 -35 -107 0
7 -35 -87 0
1 -35 -80 0
5 -35 -70 0
4 -35 -48 0
10 -35 37 0
10 -35 78 0
10 -35 107 0
3 -35 120 0
6 -34 -100 0
5 -34 -47 0
7 -34 36 0
8 -34 62 0
7 -34 79 0
9 -34 91 0
6 -34 102 0
4 -34 119 0
6 -34 126 0
8 -33 -124 0
9 -33 -98 0
4 -33 -58 0
8 -33 -45 0
9 -33 63 0
4 -33 87 0
3 -33 109 0
7 -32 -91 0
7 -32 -50 0
1 -32 51 0
9 -32 52 0
3 -32 56 0
10 -32 70 0
9 -32 96 0
9 -32 116 0
1 -32 132 0
4 -31 -128 0
2 -31 -118 0
10 -31 -105 0
4 -31 -90 0
2 -31 -58 0
3 -31 52 0
9 -31 113 0
6 -31 133 0
9 -30 -108 0
7 -30 -104 0
3 -30 -92 0
8 -30 -80 0
3 -30 -68 0
6 -30 -31 0
4 -30 31 0
10 -30 59 0
5 -30 63 0
8 -30 121 0
7 -29 -101 0
4 -29 -78 0
2 -29 -74 0
9 -29 -67 0
2 -29 -35 0
8 -29 38 0
10 -29 60 0
9 -29 88 0
10 -29 95 0
9 -29 120 0
9 -29 122 0
8 -29 123 0
9 -29 139 0
3 -28 -126 0
10 -28 -105 0
9 -28 -102 0
6 -28 -85 0
2 -28 -68 0
2 -28 -63 0
5 -28 -61 0
7 -28 -51 0
2 -28 -44 0
2 -28 -43 0
9 -28 -41 0
9 -28 31 0
4 -28 67 0
5 -28 78 0
3 -27 -138 0
4 -27 -124 0
9 -27 -84 0
1 -27 -82 0
1 -27 -78 0
3 -27 -63 0
2 -27 -49 0
9 -27 -38 0
4 -27 -36 0
9 -27 37 0
9 -27 51 0
4 -27 67 0
9 -27 70 0
8 -27 103 0
2 -26 -133 0
7 -26 -97 0
8 -26 -38 0
4 -26 39 0
7 -26 59 0
7 -26 78 0
9 -26 84 0
7 -26 94 0
8 -26 110 0
4 -26 125 0
4 -25 -140 0
9 -25 -133 0
5 -25 -87 0
4 -25 -80 0
8 -25 -71 0
9 -25 -34 0
8 -25 42 0
10 -25 57 0
3 -25 65 0
7 -25 83 0
10 -25 94 0
3 -25 105 0
9 -25 114 0
2 -25 115 0
2 -24 -121 0
3 -24 -114 0
10 -24 -100 0
1 -24 -43 0
6 -24 34 0
8 -24 77 0
9 -24 88 0
7 -24 109 0
5 -23 -125 0
6 -23 -76 0
10 -23 -72 0
2 -23 -71 0
3 -23 25 0
9 -23 46 0
8 -23 48 0
1 -23 60 0
3 -22 -136 0
2 -22 -103 0
9 -22 -87 0
7 -22 28 0
5 -22 76 0
6 -22 88 0
6 -22 108 0
3 -21 -127 0
6 -21 -117 0
8 -21 -113 0
9 -21 -111 0
6 -21 -96 0
10 -21 -88 0
8 -21 -82 0
7 -21 -55 0
2 -21 -53 0
1 -21 -41 0
7 -21 -38 0
2 -21 52 0
6 -21 107 0
5 -21 119 0
10 -20 -127 0
3 -20 -87 0
9 -20 -45 0
6 -20 38 0
3 -20 39 0
9 -20 50 0
8 -20 71 0
1 -20 79 0
7 -20 95 0
9 -20 103 0
3 -20 112 0
9 -19 -28 0
7 -19 38 0
10 -19 76 0
4 -19 83 0
3 -19 87 0
6 -19 89 0
6 -19 94 0
9 -19 118 0
3 -19 133 0
5 -18 -114 0
5 -18 -101 0
3 -18 -87 0
3 -18 -47 0
2 -18 28 0
4 -17 -90 0
3 -17 -68 0
7 -17 -64 0
5 -17 -46 0
7 -17 -43 0
2 -17 -42 0
5 -17 53 0
9 -17 60 0
9 -17 62 0
1 -17 105 0
2 -17 120 0
9 -17 126 0
9 -16 -109 0
2 -16 -105 0
6 -16 -101 0
7 -16 -100 0
5 -16 -25 0
5 -16 -23 0
4 -16 51 0
4 -16 61 0
8 -16 72 0
7 -16 106 0
9 -16 109 0
3 -15 -139 0
5 -15 -77 0
2 -15 -20 0
7 -15 68 0
9 -15 86 0
4 -15 88 0
9 -15 116 0
10 -15 126 0
7 -14 -92 0
1 -14 -53 0
7 -14 -45 0
2 -14 -42 0
8 -14 72 0
8 -14 114 0
6 -13 -139 0
7 -13 -119 0
7 -13 -99 0
6 -13 -91 0
8 -13 -86 0
6 -13 -44 0
5 -13 41 0
9 -13 76 0
2 -12 -101 0
2 -12 -90 0
4 -12 -79 0
6 -12 -47 0
5 -12 -22 0
7 -12 19 0
3 -12 56 0
2 -12 82 0
5 -12 111 0
6 -11 -98 0
6 -11 -88 0
6 -11 -74 0
3 -11 -45 0
5 -11 -44 0
9 -11 30 0
1 -11 32 0
5 -11 60 0
6 -11 109 0
2 -11 130 0
2 -10 -131 0
7 -10 -130 0
8 -10 -113 0
9 -10 -102 0
2 -10 -20 0
5 -10 -12 0
7 -10 -11 0
7 -10 113 0
3 -10 118 0
3 -10 121 0
2 -10 124 0
2 -9 -79 0
4 -9 -71 0
2 -9 49 0
5 -9 79 0
9 -9 126 0
6 -8 -135 0
1 -8 -127 0
2 -8 -102 0
7 -8 -89 0
6 -8 -45 0
7 -8 -31 0
4 -8 -17 0
2 -8 -16 0
9 -8 9 0
8 -8 30 0
2 -7 -115 0
9 -7 -107 0
3 -7 -73 0
7 -7 -68 0
10 -7 -64 0
5 -7 -50 0
3 -7 -39 0
8 -7 39 0
4 -7 51 0
5 -7 83 0
3 -7 102 0
10 -7 103 0
2 -7 105 0
5 -7 116 0
3 -7 123 0
3 -6 -129 0
6 -6 -53 0
6 -6 -33 0
4 -6 21 0
10 -6 33 0
4 -6 87 0
10 -6 93 0
1 -6 96 0
6 -6 120 0
7 -5 -137 0
6 -5 -134 0
3 -5 -126 0
9 -5 -123 0
8 -5 -97 0
1 -5 -95 0
8 -5 -85 0
8 -5 -82 0
10 -5 -42 0
10 -5 -35 0
5 -5 -34 0
9 -5 22 0
5 -5 40 0
7 -5 122 0
8 -4 -103 0
8 -4 -77 0
1 -4 -55 0
10 -4 -48 0
8 -4 32 0
2 -4 39 0
5 -4 74 0
9 -3 -83 0
4 -3 -47 0
2 -3 -37 0
5 -3 -14 0
7 -3 -12 0
2 -3 -4 0
9 -3 5 0
7 -3 37 0
2 -3 77 0
4 -3 84 0
3 -3 91 0
7 -3 106 0
6 -3 115 0
3 -2 -110 0
5 -2 -66 0
6 -2 -56 0
9 -2 -29 0
3 -2 -5 0
6 -2 19 0
9 -2 38 0
7 -2 80 0
5 -2 100 0
4 -2 110 0
4 -2 113 0
3 -1 -10 0
2 -1 23 0
4 -1 40 0
3 -1 91 0
9 -1 131 0
5 1 -133 0
7 1 -131 0
8 1 -63 0
8 1 -28 0
8 1 -23 0
3 1 -16 0
5 1 7 0
9 1 46 0
2 2 -126 0
2 2 -123 0
10 2 -89 0
5 2 -48 0
4 2 -28 0
7 2 -18 0
1 2 16 0
6 2 22 0
2 2 45 0
6 2 67 0
6 2 87 0
4 2 95 0
2 3 -109 0
5 3 -92 0
10 3 -13 0
6 3 -8 0
8 3 10 0
3 3 33 0
8 3 76 0
9 3 109 0
7 3 134 0
10 3 135 0
8 3 139 0
2 4 -87 0
7 4 -84 0
6 4 -81 0
9 4 -55 0
5 4 -46 0
8 4 -36 0
5 4 -19 0
3 4 -10 0
9 4 14 0
6 4 24 0
3 4 25 0
4 4 39 0
9 4 56 0
9 4 100 0
4 4 103 0
5 4 128 0
1 4 140 0
10 5 -114 0
10 5 -105 0
4 5 -92 0
2 5 -20 0
5 5 17 0
4 5 73 0
8 5 74 0
2 5 83 0
6 5 91 0
6 5 96 0
1 5 121 0
3 5 127 0
6 6 -133 0
8 6 -105 0
4 6 -97 0
3 6 -67 0
4 6 -63 0
3 6 39 0
7 6 52 0
2 6 102 0
7 6 107 0
9 6 110 0
10 6 120 0
3 7 -97 0
2 7 -58 0
4 7 -38 0
2 7 -14 0
10 7 45 0
8 7 52 0
6 8 -131 0
1 8 -65 0
8 8 -36 0
6 8 -26 0
4 8 -25 0
9 8 40 0
10 8 42 0
7 8 91 0
6 8 92 0
2 8 140 0
4 9 -121 0
2 9 -110 0
2 9 -84 0
6 9 -81 0
7 9 12 0
9 9 19 0
9 9 52 0
9 9 108 0
3 10 -123 0
2 10 -82 0
5 10 -54 0
4 10 -42 0
9 10 25 0
4 10 28 0
4 10 54 0
2 10 88 0
5 10 95 0
7 10 97 0
3 10 112 0
5 10 131 0
4 11 -126 0
8 11 -98 0
5 11 -97 0
2 11 -73 0
4 11 -52 0
8 11 -49 0
10 11 -17 0
4 11 58 0
6 11 131 0
6 12 -108 0
5 12 -80 0
8 12 30 0
8 12 32 0
6 12 33 0
4 12 38 0
5 12 44 0
6 12 54 0
3 12 81 0
4 12 82 0
8 12 89 0
4 12 116 0
8 12 119 0
2 12 120 0
3 12 122 0
2 13 -70 0
4 13 -51 0
4 13 -49 0
7 13 -45 0
1 13 62 0
5 13 99 0
2 14 -131 0
5 14 -121 0
3 14 -95 0
6 14 -92 0
6 14 -83 0
7 14 -73 0
5 14 -61 0
6 14 -40 0
9 14 -23 0
9 14 19 0
2 14 55 0
4 14 82 0
8 14 123 0
9 15 -112 0
10 15 -97 0
2 15 -92 0
3 15 -41 0
6 15 -30 0
4 15 45 0
6 15 68 0
4 16 -140 0
8 16 -108 0
4 16 -105 0
4 16 -92 0
10 16 -67 0
6 16 -45 0
8 16 20 0
3 16 94 0
2 16 112 0
8 17 -123 0
8 17 -106 0
3 17 -97 0
3 17 -82 0
1 17 -38 0
8 17 18 0
7 17 22 0
7 17 36 0
3 17 58 0
3 17 59 0
6 17 130 0
2 17 136 0
4 18 -138 0
10 18 -124 0
9 18 -105 0
2 18 -102 0
10 18 -77 0
1 18 -68 0
4 18 -19 0
5 18 48 0
4 18 76 0
9 18 77 0
8 18 84 0
2 18 101 0
4 18 131 0
3 18 135 0
1 19 -114 0
8 19 -57 0
9 19 -33 0
3 19 21 0
9 19 37 0
7 19 44 0
1 19 54 0
3 19 68 0
9 20 -39 0
1 20 -31 0
10 20 -24 0
6 20 32 0
7 20 45 0
3 20 70 0
8 20 111 0
3 20 130 0
4 21 -115 0
2 21 -109 0
3 21 -97 0
3 21 -39 0
3 21 38 0
3 21 40 0
3 21 58 0
6 21 78 0
7 21 117 0
7 21 129 0
6 21 135 0
5 22 -75 0
7 22 -36 0
8 22 -26 0
7 22 49 0
7 22 77 0
7 22 78 0
6 22 113 0
10 22 128 0
6 22 133 0
3 23 -136 0
1 23 -126 0
8 23 -117 0
2 23 -97 0
1 23 -65 0
8 23 37 0
8 23 100 0
7 24 -139 0
9 24 -112 0
6 24 -89 0
10 24 -88 0
4 24 -34 0
6 24 -30 0
2 24 65 0
6 24 66 0
8 24 74 0
4 24 87 0
8 24 125 0
5 25 -71 0
10 25 -67 0
5 25 89 0
10 25 112 0
5 25 138 0
2 26 -93 0
8 26 -56 0
2 26 -37 0
8 26 90 0
5 26 100 0
7 26 113 0
8 26 128 0
10 27 -138 0
9 27 -116 0
8 27 -99 0
7 27 -97 0
1 27 -71 0
9 27 -69 0
5 27 -66 0
8 27 -43 0
6 27 -41 0
5 27 60 0
4 27 78 0
5 27 113 0
7 27 115 0
9 28 -81 0
7 28 -72 0
3 28 -66 0
7 28 79 0
10 28 91 0
1 28 93 0
2 28 131 0
10 29 -135 0
5 29 -118 0
2 29 -110 0
5 29 -107 0
6 29 -105 0
9 29 -93 0
5 29 -37 0
4 29 30 0
4 29 55 0
2 29 116 0
3 29 123 0
4 30 -81 0
1 30 -70 0
1 30 -33 0
1 30 -31 0
2 30 47 0
9 30 52 0
5 30 70 0
9 30 103 0
5 30 125 0
9 31 -122 0
2 31 -89 0
9 31 -53 0
6 31 -48 0
1 31 -37 0
6 31 -34 0
8 31 98 0
7 31 140 0
6 32 -80 0
8 32 -73 0
8 32 -62 0
5 32 -46 0
4 32 67 0
9 32 70 0
9 32 75 0
9 32 131 0
8 33 -127 0
4 33 -110 0
3 33 -75 0
2 33 -65 0
5 33 -36 0
5 33 54 0
4 33 84 0
6 33 113 0
5 34 -134 0
4 34 -109 0
6 34 -108 0
3 34 -81 0
8 34 -79 0
5 34 -73 0
7 34 -71 0
7 34 -40 0
7 34 -39 0
6 34 57 0
3 34 66 0
7 34 95 0
2 34 131 0
10 35 -134 0
4 35 -45 0
7 35 36 0
8 35 51 0
3 35 85 0
2 35 102 0
2 35 107 0
2 35 113 0
10 36 -125 0
9 36 -122 0
9 36 -104 0
4 36 -49 0
2 36 58 0
9 36 70 0
8 36 82 0
6 36 116 0
4 36 125 0
4 36 128 0
10 37 45 0
7 37 46 0
9 37 49 0
3 37 52 0
5 37 98 0
5 37 101 0
9 37 102 0
2 38 -125 0
1 38 -81 0
6 38 -77 0
4 38 -62 0
7 38 -50 0
7 38 -47 0
4 38 60 0
1 38 112 0
3 38 122 0
2 38 135 0
3 39 -125 0
4 39 -104 0
2 39 -97 0
4 39 -90 0
4 39 -81 0
2 39 -64 0
3 39 -47 0
7 39 99 0
3 39 117 0
2 40 -131 0
6 40 -114 0
8 40 -88 0
5 40 -82 0
9 40 42 0
8 40 108 0
2 40 118 0
8 40 135 0
1 41 -138 0
6 41 52 0
2 41 62 0
9 41 67 0
6 41 88 0
3 41 93 0
5 41 94 0
9 41 103 0
8 41 104 0
2 41 106 0
3 41 133 0
9 42 -129 0
4 42 -126 0
3 42 -76 0
2 42 -61 0
8 42 -48 0
5 42 -44 0
5 42 46 0
2 42 56 0
5 42 135 0
6 43 -88 0
8 43 -72 0
7 43 -54 0
8 43 117 0
4 44 -121 0
5 44 -80 0
2 44 54 0
3 44 111 0
3 45 -96 0
3 45 -88 0
10 45 55 0
3 46 -135 0
7 46 -61 0
2 46 47 0
3 46 52 0
4 46 54 0
4 46 66 0
7 46 116 0
3 46 138 0
2 46 140 0
8 47 -127 0
5 47 -101 0
10 47 -88 0
2 47 54 0
7 47 73 0
2 47 77 0
9 47 81 0
2 47 103 0
5 47 108 0
10 48 -75 0
6 48 -70 0
2 48 69 0
8 48 75 0
4 48 79 0
8 49 -93 0
2 49 -70 0
8 49 51 0
10 49 135 0
4 49 136 0
1 50 -109 0
2 50 -72 0
4 50 -60 0
4 50 72 0
9 50 80 0
5 50 88 0
6 50 101 0
3 51 -119 0
8 51 -109 0
3 51 -82 0
5 51 71 0
9 51 75 0
9 52 -139 0
8 52 -120 0
9 52 -96 0
1 52 -94 0
5 52 -92 0
9 52 -90 0
9 52 61 0
6 52 76 0
4 52 113 0
9 52 118 0
3 53 -139 0
5 53 -127 0
7 53 -83 0
5 53 -57 0
3 53 70 0
8 53 89 0
4 53 120 0
3 54 -97 0
3 54 -71 0
4 54 -55 0
4 54 61 0
5 54 131 0
7 55 -140 0
3 55 -136 0
9 55 -98 0
3 55 -75 0
5 55 -59 0
7 55 70 0
4 55 103 0
8 55 110 0
6 56 -135 0
4 56 -134 0
7 56 -77 0
4 56 -71 0
4 56 -60 0
2 56 83 0
3 56 91 0
3 56 133 0
8 57 -117 0
7 57 -115 0
2 57 -111 0
9 57 66 0
2 57 74 0
8 58 -116 0
4 58 -110 0
4 58 -83 0
7 58 -79 0
7 58 -77 0
6 58 -64 0
8 58 96 0
10 58 100 0
9 58 134 0
4 59 -124 0
7 59 -116 0
3 59 -91 0
3 59 -75 0
8 59 63 0
6 59 70 0
9 59 137 0
3 60 -132 0
5 60 -92 0
5 60 75 0
5 60 103 0
2 60 126 0
8 61 -105 0
8 61 -78 0
3 61 67 0
1 61 77 0
2 61 92 0
10 61 102 0
7 62 -115 0
2 62 -73 0
9 62 88 0
8 62 129 0
10 63 -89 0
3 63 -76 0
2 63 -72 0
6 63 70 0
9 63 86 0
7 63 91 0
4 63 117 0
9 63 119 0
7 64 -140 0
7 64 -136 0
6 64 96 0
9 64 117 0
9 65 -136 0
4 65 100 0
5 65 104 0
8 65 119 0
6 65 138 0
9 66 85 0
2 66 134 0
1 67 -140 0
9 67 -131 0
9 67 -129 0
9 67 -123 0
2 67 -118 0
9 67 -109 0
9 67 -100 0
2 67 118 0
6 68 -132 0
2 68 -117 0
10 68 -112 0
4 68 74 0
1 68 97 0
3 69 96 0
5 69 106 0
6 69 114 0
2 69 117 0
3 70 -79 0
10 70 94 0
1 70 100 0
8 71 -91 0
6 71 97 0
6 72 91 0
7 72 113 0
5 72 124 0
10 73 -138 0
2 73 -106 0
3 73 -79 0
6 73 85 0
10 73 90 0
4 73 98 0
6 74 -104 0
9 75 -138 0
3 75 -120 0
5 75 -110 0
1 75 -109 0
2 75 104 0
5 75 126 0
2 75 131 0
6 75 134 0
5 76 -135 0
2 76 130 0
9 77 -110 0
6 77 -93 0
4 77 88 0
4 77 128 0
2 78 -139 0
5 78 -138 0
6 78 -98 0
2 79 -99 0
5 79 85 0
4 79 93 0
7 79 132 0
1 79 139 0
1 80 -130 0
2 80 -82 0
1 80 90 0
2 80 135 0
4 81 -124 0
6 81 -103 0
2 82 -139 0
7 82 -119 0
2 82 -118 0
10 83 -132 0
8 83 -99 0
6 83 -94 0
10 83 112 0
9 84 -110 0
10 84 95 0
2 84 105 0
5 84 109 0
5 84 118 0
3 84 133 0
5 85 86 0
1 85 106 0
6 86 -113 0
8 86 97 0
2 87 -132 0
1 87 -127 0
4 87 -118 0
3 87 -103 0
6 87 -97 0
7 87 91 0
9 88 -124 0
6 88 -123 0
7 88 -100 0
1 88 90 0
6 88 119 0
8 88 126 0
4 89 91 0
2 89 108 0
9 89 119 0
10 89 121 0
3 89 122 0
9 90 -124 0
8 90 -91 0
8 90 101 0
8 90 116 0
7 90 134 0
8 91 -120 0
10 91 -106 0
2 91 -101 0
3 91 106 0
3 93 -130 0
6 93 -116 0
3 93 98 0
8 93 135 0
4 94 -109 0
5 94 98 0
9 94 113 0
6 94 119 0
7 96 -121 0
4 96 -117 0
3 96 125 0
6 97 -132 0
9 97 -112 0
10 97 100 0
7 97 110 0
5 97 130 0
8 98 -138 0
10 98 -125 0
6 98 -112 0
7 98 138 0
9 99 -128 0
7 99 -113 0
6 99 -110 0
7 99 118 0
6 100 -134 0
4 100 137 0
4 101 -135 0
3 101 -132 0
4 101 -105 0
5 101 111 0
6 101 121 0
6 101 122 0
9 102 -136 0
8 102 -135 0
4 102 105 0
3 103 -133 0
3 103 -128 0
2 103 -111 0
8 103 130 0
9 104 -115 0
5 104 -109 0
1 104 108 0
5 105 -117 0
4 105 118 0
1 105 125 0
2 106 -134 0
8 106 -129 0
8 106 -126 0
1 106 108 0
4 106 112 0
5 106 115 0
9 106 121 0
1 107 -137 0
10 107 -127 0
6 108 -136 0
6 108 -129 0
4 108 -119 0
9 110 -136 0
8 110 -127 0
7 110 -111 0
4 111 -126 0
4 111 116 0
2 111 117 0
3 112 132 0
2 113 -135 0
5 113 -127 0
4 113 138 0
4 114 -126 0
6 115 -126 0
3 115 117 0
3 115 132 0
2 115 137 0
3 116 -119 0
7 117 -127 0
5 117 120 0
3 120 -137 0
8 121 125 0
3 121 140 0
1 122 -130 0
8 122 129 0
6 123 -135 0
6 123 138 0
8 123 140 0
6 124 -138 0
5 124 -127 0
4 124 132 0
2 126 -136 0
8 126 -134 0
3 126 138 0
10 127 133 0
5 130 -131 0
6 130 131 0
4 132 -136 0
6 135 -140 0
7 135 -139 0
5 139 -140 0
